HUN,8,6,311
5,21,2,26,4,25,1,24,3,28,0,29
2,21,1,30,3,25,5,30,4,30,0,30
1,25,3,22,5,29,2,23,4,24,0,27
0,21,1,23,5,21,3,26,4,21,2,23
0,29,2,28,4,25,1,26,3,25,5,25
5,29,0,29,3,22,4,28,2,30,1,26
2,24,4,23,5,23,1,23,3,21,0,30
1,23,3,26,5,22,2,26,0,24,4,25
